num_posiciones_existentes=3;

ciudades=[|2,3
|2,6
|6,2|];

tamano_matriz=7;

matriz_segmento_poblacion=[|1, 1, 1, 4, 5, 6, 7
                            |1, 1, 1, 5, 6, 7, 1
                            |1, 1, 5, 6, 7, 1, 2
                            |4, 5, 6, 7, 1, 2, 3
                            |5, 6, 7, 1, 2, 3, 4
                            |6, 7, 1, 2, 3, 4, 5
                            |7, 1, 2, 3, 4, 5, 6|];

matriz_entorno_empresarial=[|7, 9, 5, 4, 3, 2, 1
                            |6, 5, 4, 3, 2, 1, 7
                            |9, 4, 3, 2, 1, 7, 6
                            |4, 3, 2, 1, 7, 6, 5
                            |3, 2, 1, 7, 6, 5, 4
                            |2, 1, 7, 6, 5, 4, 3
                            |9, 7, 6, 5, 4, 3, 9|];

num_programas=3;
